
Gurobi 12.0.0 (mac64[arm]) logging started Tue Feb 17 09:30:26 2026

Set parameter LogFile to value "/Users/lennardhansmann/Desktop/TNLAP/Instances/sol/H30P80A1(A).log"
Set parameter Threads to value 1
Gurobi Optimizer version 12.0.0 build v12.0.0rc1 (mac64[arm] - Darwin 25.2.0 25C56)

CPU model: Apple M3 Pro
Thread count: 11 physical cores, 11 logical processors, using up to 1 threads

Non-default parameters:
TimeLimit  3600
Threads  1

Optimize a model with 21187 rows, 18259 columns and 124535 nonzeros
Model fingerprint: 0x8142ddd4
Variable types: 6214 continuous, 12045 integer (12045 binary)
Coefficient statistics:
  Matrix range     [1e-02, 2e+04]
  Objective range  [1e+00, 1e+00]
  Bounds range     [1e+00, 2e+04]
  RHS range        [5e-01, 2e+04]
Presolve removed 12973 rows and 11462 columns
Presolve time: 0.95s
Presolved: 8214 rows, 6797 columns, 57282 nonzeros
Variable types: 397 continuous, 6400 integer (5156 binary)
Found heuristic solution: objective 0.2690355
Found heuristic solution: objective 2.7591977

Root relaxation: objective 1.191042e+01, 2823 iterations, 0.05 seconds (0.08 work units)

    Nodes    |    Current Node    |     Objective Bounds      |     Work
 Expl Unexpl |  Obj  Depth IntInf | Incumbent    BestBd   Gap | It/Node Time

     0     0   11.91042    0  399    2.75920   11.91042   332%     -    1s
H    0     0                       5.3120752   11.91042   124%     -    1s
H    0     0                       5.4689378   11.91042   118%     -    1s
H    0     0                       5.5914564   11.91042   113%     -    1s
H    0     0                       5.8025157   11.91042   105%     -    1s
H    0     0                       5.8196867   11.91042   105%     -    1s
H    0     0                       5.9803093   11.91042  99.2%     -    1s
H    0     0                       6.1298655   11.91042  94.3%     -    1s
H    0     0                       6.1331988   11.91042  94.2%     -    1s
H    0     0                       6.1356988   11.91042  94.1%     -    1s
H    0     0                       6.1777343   11.91042  92.8%     -    1s
H    0     0                       6.1987633   11.91042  92.1%     -    1s
H    0     0                       6.2090966   11.91042  91.8%     -    1s
     0     0   10.12193    0  557    6.20910   10.12193  63.0%     -    1s
H    0     0                       6.4070939   10.12170  58.0%     -    1s
H    0     0                       6.4129272   10.12170  57.8%     -    1s
     0     0    9.79856    0  531    6.41293    9.79856  52.8%     -    1s
     0     0    9.74829    0  533    6.41293    9.74829  52.0%     -    1s
     0     0    9.74809    0  538    6.41293    9.74809  52.0%     -    1s
     0     0    8.64569    0  428    6.41293    8.64569  34.8%     -    1s
H    0     0                       6.4154272    8.64517  34.8%     -    1s
H    0     0                       6.4547383    8.64517  33.9%     -    1s
H    0     0                       6.4572383    8.64517  33.9%     -    1s
H    0     0                       6.5139286    8.64517  32.7%     -    1s
H    0     0                       6.6053206    8.64517  30.9%     -    1s
     0     0    8.55582    0  469    6.60532    8.55582  29.5%     -    1s
     0     0    7.58479    0  336    6.60532    7.58479  14.8%     -    1s
H    0     0                       6.7107298    7.58422  13.0%     -    1s
H    0     0                       6.8251100    7.58422  11.1%     -    1s
H    0     0                       6.8276100    7.58422  11.1%     -    1s
     0     0    7.52708    0  259    6.82761    7.52708  10.2%     -    1s
     0     0    7.51737    0  240    6.82761    7.51737  10.1%     -    1s
     0     0    7.50582    0  191    6.82761    7.50582  9.93%     -    1s
     0     0    7.50561    0  191    6.82761    7.50561  9.93%     -    1s
     0     0    7.27436    0  125    6.82761    7.27436  6.54%     -    1s
H    0     0                       6.8455124    7.27419  6.26%     -    1s
     0     0    7.23325    0  154    6.84551    7.23325  5.66%     -    2s
H    0     0                       6.9055360    7.23303  4.74%     -    2s
     0     0    7.22033    0  142    6.90554    7.22033  4.56%     -    2s
     0     0    7.21524    0  150    6.90554    7.21524  4.48%     -    2s
     0     0    7.17382    0   95    6.90554    7.17382  3.89%     -    2s
     0     0    7.17348    0   96    6.90554    7.17348  3.88%     -    2s
     0     0    7.14120    0  132    6.90554    7.14120  3.41%     -    2s
     0     0    7.13902    0   92    6.90554    7.13902  3.38%     -    2s
H    0     0                       6.9374948    7.13787  2.89%     -    2s
     0     0    7.13071    0  119    6.93749    7.13071  2.79%     -    2s
     0     0    7.12708    0  143    6.93749    7.12708  2.73%     -    2s
     0     0    7.10414    0  122    6.93749    7.10414  2.40%     -    2s
     0     0    7.09854    0   48    6.93749    7.09854  2.32%     -    2s
H    0     0                       6.9579861    7.09809  2.01%     -    2s
     0     0    7.09347    0   32    6.95799    7.09347  1.95%     -    2s
     0     0    7.07999    0  189    6.95799    7.07999  1.75%     -    2s
     0     0    7.07958    0  145    6.95799    7.07958  1.75%     -    2s
     0     0    7.07298    0  154    6.95799    7.07298  1.65%     -    2s
     0     0    7.07183    0  109    6.95799    7.07183  1.64%     -    2s
     0     0    7.06349    0   98    6.95799    7.06349  1.52%     -    2s
     0     0    7.04164    0  156    6.95799    7.04164  1.20%     -    2s
     0     0    7.04111    0   29    6.95799    7.04111  1.19%     -    2s
H    0     0                       6.9646528    7.03879  1.06%     -    2s
     0     0    7.03669    0    7    6.96465    7.03669  1.03%     -    2s
     0     0    7.03063    0   10    6.96465    7.03063  0.95%     -    2s
     0     0    7.02672    0   65    6.96465    7.02672  0.89%     -    2s
     0     0    7.02672    0  427    6.96465    7.02672  0.89%     -    2s
     0     0    7.02672    0  272    6.96465    7.02672  0.89%     -    3s
     0     0    7.02672    0  194    6.96465    7.02672  0.89%     -    3s
     0     0    7.02672    0  228    6.96465    7.02672  0.89%     -    3s
     0     0    7.02672    0  160    6.96465    7.02672  0.89%     -    3s
     0     0    7.02672    0  222    6.96465    7.02672  0.89%     -    3s
     0     0    7.02672    0  240    6.96465    7.02672  0.89%     -    3s
     0     0    7.02672    0   86    6.96465    7.02672  0.89%     -    3s
     0     0    7.02672    0   89    6.96465    7.02672  0.89%     -    3s
     0     0    7.02672    0  158    6.96465    7.02672  0.89%     -    3s
     0     0    7.02672    0   97    6.96465    7.02672  0.89%     -    3s
     0     0    7.02672    0  133    6.96465    7.02672  0.89%     -    3s
     0     0    7.02672    0   99    6.96465    7.02672  0.89%     -    3s
     0     0    7.02672    0   54    6.96465    7.02672  0.89%     -    3s
     0     0    7.02672    0   85    6.96465    7.02672  0.89%     -    3s
     0     0    7.02672    0   79    6.96465    7.02672  0.89%     -    3s
     0     0    7.02672    0   74    6.96465    7.02672  0.89%     -    3s
     0     0    7.02672    0   54    6.96465    7.02672  0.89%     -    3s
     0     0    7.02672    0   48    6.96465    7.02672  0.89%     -    3s
     0     0    7.02672    0   50    6.96465    7.02672  0.89%     -    3s
     0     0    7.02672    0   40    6.96465    7.02672  0.89%     -    3s
     0     0    7.02672    0   40    6.96465    7.02672  0.89%     -    3s
     0     0    7.00855    0   36    6.96465    7.00855  0.63%     -    3s
     0     0    7.00849    0   36    6.96465    7.00849  0.63%     -    3s
*    0     0               0       7.0067107    7.00671  0.00%     -    3s

Cutting planes:
  Learned: 22
  Gomory: 13
  Lift-and-project: 3
  Cover: 61
  Implied bound: 112
  Clique: 39
  MIR: 19
  StrongCG: 2
  Flow cover: 24
  GUB cover: 13
  RLT: 29
  Relax-and-lift: 28
  BQP: 6

Explored 1 nodes (10495 simplex iterations) in 3.26 seconds (4.83 work units)
Thread count was 1 (of 11 available processors)

Solution count 10: 7.00671 6.96465 6.96465 ... 6.82761

Optimal solution found (tolerance 1.00e-04)
Best objective 7.006710676215e+00, best bound 7.006710676215e+00, gap 0.0000%

Gurobi 12.0.0 (mac64[arm]) logging started Tue Feb 17 09:33:49 2026

Set parameter LogFile to value "/Users/lennardhansmann/Desktop/TNLAP/Instances/sol/H30P80A1(A).log"
Set parameter Threads to value 1
Gurobi Optimizer version 12.0.0 build v12.0.0rc1 (mac64[arm] - Darwin 25.2.0 25C56)

CPU model: Apple M3 Pro
Thread count: 11 physical cores, 11 logical processors, using up to 1 threads

Non-default parameters:
TimeLimit  3600
Threads  1

Optimize a model with 27894 rows, 24966 columns and 238554 nonzeros
Model fingerprint: 0x6dc45af3
Variable types: 6214 continuous, 18752 integer (18752 binary)
Coefficient statistics:
  Matrix range     [1e-02, 2e+04]
  Objective range  [1e+00, 1e+00]
  Bounds range     [1e+00, 2e+04]
  RHS range        [5e-01, 2e+04]
Presolve removed 13564 rows and 12607 columns
Presolve time: 1.45s
Presolved: 14330 rows, 12359 columns, 125364 nonzeros
Variable types: 1112 continuous, 11247 integer (9668 binary)
Found heuristic solution: objective 0.2600868
Found heuristic solution: objective 1.4587828

Root relaxation: objective 1.622882e+01, 14725 iterations, 0.95 seconds (2.07 work units)

    Nodes    |    Current Node    |     Objective Bounds      |     Work
 Expl Unexpl |  Obj  Depth IntInf | Incumbent    BestBd   Gap | It/Node Time

     0     0   16.22882    0  540    1.45878   16.22882  1012%     -    2s
H    0     0                       1.4607828   16.22882  1011%     -    2s
H    0     0                       5.4738777   16.22882   196%     -    2s
H    0     0                       6.9514667   16.22882   133%     -    2s
H    0     0                       7.1155762   16.22882   128%     -    2s
H    0     0                       7.1955232   16.22882   126%     -    2s
H    0     0                       7.3179172   16.22882   122%     -    2s
H    0     0                       7.7830828   16.22882   109%     -    2s
H    0     0                       7.8152907   16.22882   108%     -    2s
H    0     0                       7.8381853   16.22882   107%     -    2s
H    0     0                       7.8521330   16.22882   107%     -    2s
     0     0   14.49621    0  708    7.85213   14.49621  84.6%     -    3s
     0     0   14.34733    0  773    7.85213   14.34733  82.7%     -    3s
     0     0   14.34327    0  772    7.85213   14.34327  82.7%     -    3s
     0     0   13.24507    0  682    7.85213   13.24507  68.7%     -    3s
H    0     0                       7.8854516   13.24507  68.0%     -    4s
H    0     0                       7.9016191   13.24507  67.6%     -    4s
H    0     0                       7.9066191   13.24507  67.5%     -    4s
H    0     0                       7.9082858   13.24507  67.5%     -    4s
     0     0   13.17020    0  705    7.90829   13.17020  66.5%     -    4s
     0     0   13.16282    0  715    7.90829   13.16282  66.4%     -    4s
     0     0   13.16205    0  728    7.90829   13.16205  66.4%     -    4s
     0     0   13.16116    0  714    7.90829   13.16116  66.4%     -    4s
     0     0   11.86513    0  780    7.90829   11.86513  50.0%     -    4s
H    0     0                       7.9087858   11.86513  50.0%     -    5s
     0     0   11.79962    0  824    7.90879   11.79962  49.2%     -    5s
     0     0   11.79336    0  785    7.90879   11.79336  49.1%     -    5s
     0     0   11.79335    0  790    7.90879   11.79335  49.1%     -    5s
     0     0   10.85447    0  611    7.90879   10.85447  37.2%     -    5s
     0     0   10.81934    0  669    7.90879   10.81934  36.8%     -    5s
     0     0   10.79793    0  428    7.90879   10.79793  36.5%     -    5s
     0     0   10.53871    0  526    7.90879   10.53871  33.3%     -    5s
H    0     0                       7.9186358   10.53783  33.1%     -    5s
H    0     0                       7.9508437   10.53783  32.5%     -    5s
     0     0   10.51884    0  507    7.95084   10.51884  32.3%     -    6s
     0     0   10.51552    0  510    7.95084   10.51552  32.3%     -    6s
     0     0   10.50914    0  497    7.95084   10.50914  32.2%     -    6s
     0     0   10.50905    0  497    7.95084   10.50905  32.2%     -    6s
     0     0   10.26977    0  505    7.95084   10.26977  29.2%     -    6s
     0     0   10.24555    0  708    7.95084   10.24555  28.9%     -    6s
     0     0   10.24299    0  638    7.95084   10.24299  28.8%     -    6s
     0     0    9.99301    0  663    7.95084    9.99301  25.7%     -    6s
H    0     0                       7.9516770    9.99284  25.7%     -    6s
     0     0    9.96973    0  645    7.95168    9.96973  25.4%     -    6s
     0     0    9.96973    0  665    7.95168    9.96973  25.4%     -    6s
     0     0    9.84999    0  678    7.95168    9.84999  23.9%     -    7s
     0     0    9.83379    0  660    7.95168    9.83379  23.7%     -    7s
     0     0    9.83121    0  666    7.95168    9.83121  23.6%     -    7s
     0     0    9.82886    0  583    7.95168    9.82886  23.6%     -    7s
     0     0    9.82886    0  583    7.95168    9.82886  23.6%     -    7s
     0     0    9.70028    0  491    7.95168    9.70028  22.0%     -    7s
     0     0    9.68972    0  505    7.95168    9.68972  21.9%     -    7s
     0     0    9.68972    0  505    7.95168    9.68972  21.9%     -    7s
     0     0    9.47494    0  437    7.95168    9.47494  19.2%     -    7s
     0     0    9.43867    0  496    7.95168    9.43867  18.7%     -    8s
     0     0    9.43867    0  494    7.95168    9.43867  18.7%     -    8s
     0     0    9.43867    0  490    7.95168    9.43867  18.7%     -    8s
     0     0    9.32996    0  535    7.95168    9.32996  17.3%     -    8s
     0     0    9.31476    0  460    7.95168    9.31476  17.1%     -    8s
     0     0    9.31158    0  446    7.95168    9.31158  17.1%     -    8s
     0     0    9.20201    0  533    7.95168    9.20201  15.7%     -    8s
     0     0    9.18770    0  448    7.95168    9.18770  15.5%     -    8s
     0     0    9.18728    0  475    7.95168    9.18728  15.5%     -    8s
     0     0    9.11916    0  606    7.95168    9.11916  14.7%     -    8s
     0     0    9.11482    0  296    7.95168    9.11482  14.6%     -    9s
     0     0    9.08718    0  693    7.95168    9.08718  14.3%     -    9s
     0     0    9.07289    0  628    7.95168    9.07289  14.1%     -    9s
     0     0    9.07288    0  644    7.95168    9.07288  14.1%     -    9s
     0     0    9.05628    0  485    7.95168    9.05628  13.9%     -    9s
     0     0    9.05608    0  628    7.95168    9.05608  13.9%     -    9s
     0     0    9.02996    0  413    7.95168    9.02996  13.6%     -    9s
     0     0    9.02861    0  570    7.95168    9.02861  13.5%     -    9s
     0     0    9.00746    0  567    7.95168    9.00746  13.3%     -   10s
     0     0    8.99632    0  630    7.95168    8.99632  13.1%     -   10s
     0     0    8.99592    0  573    7.95168    8.99592  13.1%     -   10s
     0     0    8.90448    0  644    7.95168    8.90448  12.0%     -   10s
     0     0    8.89995    0  670    7.95168    8.89995  11.9%     -   10s
     0     0    8.89946    0  586    7.95168    8.89946  11.9%     -   10s
     0     0    8.86872    0  461    7.95168    8.86872  11.5%     -   10s
     0     0    8.86862    0  464    7.95168    8.86862  11.5%     -   10s
     0     0    8.81843    0  587    7.95168    8.81843  10.9%     -   11s
     0     0    8.80338    0  673    7.95168    8.80338  10.7%     -   11s
     0     0    8.79989    0  726    7.95168    8.79989  10.7%     -   11s
     0     0    8.79989    0  722    7.95168    8.79989  10.7%     -   11s
     0     0    8.74397    0  620    7.95168    8.74397  10.0%     -   11s
H    0     0                       7.9533437    8.74397  9.94%     -   11s
     0     0    8.73087    0  435    7.95334    8.73087  9.78%     -   11s
     0     0    8.73087    0  517    7.95334    8.73087  9.78%     -   11s
     0     0    8.65188    0  496    7.95334    8.65188  8.78%     -   11s
H    0     0                       7.9550104    8.65127  8.75%     -   12s
     0     0    8.63928    0  463    7.95501    8.63928  8.60%     -   12s
     0     0    8.63828    0  489    7.95501    8.63828  8.59%     -   12s
     0     0    8.55726    0  561    7.95501    8.55726  7.57%     -   12s
     0     0    8.55420    0  546    7.95501    8.55420  7.53%     -   12s
     0     0    8.49767    0  392    7.95501    8.49767  6.82%     -   12s
     0     0    8.49686    0  352    7.95501    8.49686  6.81%     -   12s
     0     0    8.49686    0  364    7.95501    8.49686  6.81%     -   12s
     0     0    8.46672    0  362    7.95501    8.46672  6.43%     -   12s
     0     0    8.46450    0  381    7.95501    8.46450  6.40%     -   12s
     0     0    8.46450    0  338    7.95501    8.46450  6.40%     -   12s
     0     2    8.45802    0  338    7.95501    8.45802  6.32%     -   13s
    80    72    8.40450    5  251    7.95501    8.44367  6.14%   114   15s
   407   353    8.06376   49  154    7.95501    8.43888  6.08%  97.9   20s
   561   480    8.15132   40  338    7.95501    8.43597  6.05%  89.4   27s
   567   484    8.29579   17  652    7.95501    8.43597  6.05%  88.5   30s
   604   510    7.97083   38  466    7.95501    7.97083  0.20%   148   35s
H  610   488                       7.9610558    7.96106  0.00%   146   35s

Cutting planes:
  Learned: 15
  Gomory: 29
  Lift-and-project: 4
  Cover: 93
  Implied bound: 116
  Projected implied bound: 2
  Clique: 44
  MIR: 22
  StrongCG: 1
  Flow cover: 44
  GUB cover: 21
  Zero half: 2
  RLT: 46
  Relax-and-lift: 23
  BQP: 5

Explored 610 nodes (156472 simplex iterations) in 35.30 seconds (65.56 work units)
Thread count was 1 (of 11 available processors)

Solution count 10: 7.96106 7.95501 7.95501 ... 7.90829

Optimal solution found (tolerance 1.00e-04)
Best objective 7.961055843164e+00, best bound 7.961055941182e+00, gap 0.0000%
